NAME : tsp50_4.225.tour
COMMENT : Length = 225
COMMENT : Found by LKH [Keld Helsgaun]
TYPE : TOUR
DIMENSION : 50
TOUR_SECTION
1
3
19
30
40
48
36
46
15
17
8
38
31
24
4
25
2
13
27
22
10
12
20
5
37
29
7
45
43
49
39
35
11
6
18
44
14
23
26
50
21
34
32
33
28
9
41
47
42
16
-1
EOF
